
Gurobi 9.1.2 (win64) logging started Tue Dec  7 13:40:15 2021

Gurobi Optimizer version 9.1.2 build v9.1.2rc0 (win64)
Thread count: 8 physical cores, 8 logical processors, using up to 8 threads
Optimize a model with 1 rows, 52 columns and 51 nonzeros
Model fingerprint: 0x316fbe79
Variable types: 1 continuous, 51 integer (51 binary)
Coefficient statistics:
  Matrix range     [1e+00, 1e+01]
  Objective range  [1e+00, 1e+00]
  Bounds range     [4e+01, 4e+01]
  RHS range        [1e+01, 1e+01]
Presolve time: 0.00s
Presolved: 1 rows, 52 columns, 51 nonzeros
Variable types: 1 continuous, 51 integer (51 binary)

Root simplex log...

Iteration    Objective       Primal Inf.    Dual Inf.      Time
       0   -4.1011780e+01   4.878389e-02   0.000000e+00     14s
       2   -4.1011780e+01   0.000000e+00   0.000000e+00     14s

Root relaxation: objective -4.101178e+01, 2 iterations, 0.00 seconds

    Nodes    |    Current Node    |     Objective Bounds      |     Work
 Expl Unexpl |  Obj  Depth IntInf | Incumbent    BestBd   Gap | It/Node Time

     0     0  -41.01178    0    3          -  -41.01178      -     -   14s
H    0     0                       0.3264432  -41.01178      -     -   14s
H    0     0                      -0.2293625  -41.01178      -     -   14s
H    0     0                      -1.1464791  -41.01178  3477%     -   15s
     0     0  -41.01178    0    5   -1.14648  -41.01178  3477%     -   15s
H    0     0                      -1.2324911  -41.01178  3228%     -   15s
H    0     0                      -1.3977971  -41.01178  2834%     -   15s
     0     0  -38.06969    0    7   -1.39780  -38.06969  2624%     -   15s
     0     0  -36.45680    0    8   -1.39780  -36.45680  2508%     -   15s
     0     0  -34.71853    0    7   -1.39780  -34.71853  2384%     -   15s
     0     0  -28.82588    0    5   -1.39780  -28.82588  1962%     -   15s
     0     0  -28.75484    0    5   -1.39780  -28.75484  1957%     -   15s
     0     0  -28.70974    0    7   -1.39780  -28.70974  1954%     -   15s
     0     0  -28.39085    0    7   -1.39780  -28.39085  1931%     -   15s
     0     0  -20.87903    0    7   -1.39780  -20.87903  1394%     -   15s
     0     0  -20.87903    0    7   -1.39780  -20.87903  1394%     -   15s
     0     0  -19.43591    0    5   -1.39780  -19.43591  1290%     -   15s
     0     0  -19.43591    0    4   -1.39780  -19.43591  1290%     -   15s
     0     0  -19.43591    0    5   -1.39780  -19.43591  1290%     -   15s

Explored 1 nodes (95 simplex iterations) in 15.87 seconds
Thread count was 8 (of 8 available processors)

Solution count 5: -1.3978 -1.23249 -1.14648 ... 0.326443
No other solutions better than -1.3978

Optimal solution found (tolerance 1.00e-04)
Best objective -1.397797106571e+00, best bound -1.397797106571e+00, gap 0.0000%

User-callback calls 156, time in user-callback 19.45 sec
